************************************************************************
file with basedata            : md345_.bas
initial value random generator: 1205819386
************************************************************************
projects                      :  1
jobs (incl. supersource/sink ):  22
horizon                       :  155
RESOURCES
  - renewable                 :  2   R
  - nonrenewable              :  2   N
  - doubly constrained        :  0   D
************************************************************************
PROJECT INFORMATION:
pronr.  #jobs rel.date duedate tardcost  MPM-Time
    1     20      0       26       13       26
************************************************************************
PRECEDENCE RELATIONS:
jobnr.    #modes  #successors   successors
   1        1          3           2   3   4
   2        3          2           6   7
   3        3          2           8  11
   4        3          3           5   7  11
   5        3          2          10  12
   6        3          2           9  16
   7        3          3           8  10  12
   8        3          3           9  14  21
   9        3          2          19  20
  10        3          2          13  19
  11        3          3          12  17  21
  12        3          1          20
  13        3          2          15  21
  14        3          2          15  16
  15        3          1          17
  16        3          2          17  19
  17        3          1          18
  18        3          1          20
  19        3          1          22
  20        3          1          22
  21        3          1          22
  22        1          0        
************************************************************************
REQUESTS/DURATIONS:
jobnr. mode duration  R 1  R 2  N 1  N 2
------------------------------------------------------------------------
  1      1     0       0    0    0    0
  2      1     1       0    7    0    6
         2     9       0    7    0    5
         3    10       0    7    7    0
  3      1     1       4    0    0    8
         2     5       0    6    0    3
         3     9       4    0    4    0
  4      1     2       4    0    0   10
         2     3       0    3    3    0
         3     9       3    0    0   10
  5      1     4       8    0    0    9
         2     4       8    0    8    0
         3     9       8    0    7    0
  6      1     1       0    4    0    6
         2     4       4    0    0    2
         3     8       0    4    3    0
  7      1     1       0    2    7    0
         2     1       9    0    6    0
         3     7       8    0    0    5
  8      1     3       6    0    8    0
         2     7       5    0    2    0
         3     8       2    0    0    1
  9      1     1       8    0    4    0
         2     5       0    7    0    9
         3     8       7    0    3    0
 10      1     4       6    0    8    0
         2     7       0    7    1    0
         3     9       2    0    0   10
 11      1     4       4    0    6    0
         2     8       1    0    3    0
         3     8       0    7    2    0
 12      1     3       7    0    5    0
         2     6       0    8    0    8
         3     7       0    7    0    7
 13      1     4       1    0    0    9
         2     6       0    6    0    6
         3     7       0    2    0    4
 14      1     1       6    0    0    9
         2     2       5    0   10    0
         3     3       0    5   10    0
 15      1     2       0    4    9    0
         2     3       9    0    0    7
         3     4       8    0    9    0
 16      1     3       5    0    0    6
         2     8       0    6    0    5
         3    10       3    0    0    4
 17      1     6       0    1    0    8
         2     6       9    0    0    9
         3    10       7    0    9    0
 18      1     1       0    3    4    0
         2     3       6    0    0    3
         3     9       0    2    0    2
 19      1     2       3    0    6    0
         2     5       0    6    5    0
         3     5       1    0    4    0
 20      1     3       0    7    0   10
         2     7       0    7    0    5
         3     8       0    4    8    0
 21      1     4       0    7    0    5
         2     6       0    7    0    4
         3     7       0    7    5    0
 22      1     0       0    0    0    0
************************************************************************
RESOURCEAVAILABILITIES:
  R 1  R 2  N 1  N 2
   13   12  114  130
************************************************************************
MAXIMAL LAGS:
from  to  type  delay
    1   22   ES      0
    1    2   ES      0
    2   22   ES      0
    1    3   ES      0
    3   22   ES      0
    1    4   ES      0
    4   22   ES      0
    1    5   ES      0
    5   22   ES      0
    1    6   ES      0
    6   22   ES      0
    1    7   ES      0
    7   22   ES      0
    1    8   ES      0
    8   22   ES      0
    1    9   ES      0
    9   22   ES      0
    1   10   ES      0
   10   22   ES      0
    1   11   ES      0
   11   22   ES      0
    1   12   ES      0
   12   22   ES      0
    1   13   ES      0
   13   22   ES      0
    1   14   ES      0
   14   22   ES      0
    1   15   ES      0
   15   22   ES      0
    1   16   ES      0
   16   22   ES      0
    1   17   ES      0
   17   22   ES      0
    1   18   ES      0
   18   22   ES      0
    1   19   ES      0
   19   22   ES      0
    1   20   ES      0
   20   22   ES      0
    1   21   ES      0
   21   22   ES      0
    1   22   ES      0
    2    6   SS      0
    2    6   SE    -12
    2    6   ES    -10
    2    6   EE     -6
    2    7   SS     -4
    2    7   SE      3
    2    7   ES      2
    2    7   EE      5
    3    8   SS      6
    3    8   SE     -4
    3    8   ES      4
    3    8   EE      6
    3   11   SS      1
    3   11   SE     -6
    3   11   ES     -4
    3   11   EE    -11
    4    5   SS      1
    4    5   SE      8
    4    5   ES      3
    4    5   EE      7
    4    7   SS     -9
    4    7   SE      3
    4    7   ES      1
    4    7   EE      0
    4   11   SS     -2
    4   11   SE     -9
    4   11   ES     -8
    4   11   EE     -7
    5   10   SS     -9
    5   10   SE     -1
    5   10   ES     12
    5   10   EE    -11
    5   12   SS    -11
    5   12   SE    -10
    5   12   ES     -4
    5   12   EE     -9
    6    9   SS      5
    6    9   SE      5
    6    9   ES     -4
    6    9   EE     -8
    6   16   SS     -9
    6   16   SE     11
    6   16   ES      9
    6   16   EE      1
    7    8   SS     -6
    7    8   SE    -11
    7    8   ES      9
    7    8   EE      6
    7   10   SS    -11
    7   10   SE    -12
    7   10   ES     -9
    7   10   EE     -2
    7   12   SS      7
    7   12   SE     11
    7   12   ES     -4
    7   12   EE     -3
    8    9   SS      1
    8    9   SE     -5
    8    9   ES     -5
    8    9   EE     -5
    8   14   SS      7
    8   14   SE      7
    8   14   ES      6
    8   14   EE     12
    8   21   SS     -4
    8   21   SE      5
    8   21   ES     -1
    8   21   EE     -5
    9   19   SS     -8
    9   19   SE    -12
    9   19   ES      5
    9   19   EE      6
    9   20   SS     -2
    9   20   SE     12
    9   20   ES     -5
    9   20   EE     -7
   10   13   SS      0
   10   13   SE     -6
   10   13   ES      5
   10   13   EE      7
   10   19   SS    -12
   10   19   SE     -7
   10   19   ES    -10
   10   19   EE      6
   11   12   SS     11
   11   12   SE      7
   11   12   ES     -4
   11   12   EE      3
   11   17   SS     -9
   11   17   SE     -9
   11   17   ES     -5
   11   17   EE      1
   11   21   SS     -5
   11   21   SE     -5
   11   21   ES      2
   11   21   EE      7
   12   20   SS     -7
   12   20   SE     -7
   12   20   ES     -5
   12   20   EE     -4
   13   15   SS     -9
   13   15   SE    -12
   13   15   ES     -5
   13   15   EE      9
   13   21   SS     -3
   13   21   SE      1
   13   21   ES      6
   13   21   EE      7
   14   15   SS      0
   14   15   SE      2
   14   15   ES     -6
   14   15   EE     -5
   14   16   SS     -9
   14   16   SE    -10
   14   16   ES      1
   14   16   EE     10
   15   17   SS      2
   15   17   SE      2
   15   17   ES     -8
   15   17   EE     11
   16   17   SS      0
   16   17   SE      7
   16   17   ES     12
   16   17   EE      0
   16   19   SS    -12
   16   19   SE      5
   16   19   ES     12
   16   19   EE     -4
   17   18   SS     -6
   17   18   SE      9
   17   18   ES      3
   17   18   EE      1
   18   20   SS      4
   18   20   SE     -2
   18   20   ES     -2
   18   20   EE    -12
************************************************************************
